0
3
14
28
33
26
23
21
9
10
8
7
8
11
5
12
14
15
13
13
14
14
16
13
15
17
16
17
7
7
7
7
7
7
7
7
7
7
7
7
7
7
7
7
7
7
7
7
7
7
7
7
7
7
7
7
7
7
7
7
8
16
18
12
16
19
19
12
8
19
20
19
12
18
20
20
13
10
21
19
12
10
21
21
12
10
20
20
11
10
20
21
19
12
19
19
12
19
19
19
12
